
List of user-set options:

                                    Name   Value                used
                           compl_inf_tol = 1                     yes
                         constr_viol_tol = 1                     yes
                            dual_inf_tol = 1000                  yes
                           linear_solver = ma97                  yes
                              ma86_small = 1e-30                  no
                                  ma86_u = 0.0001                 no
                              ma97_order = best                  yes
                              ma97_small = 1e-30                 yes
                            ma97_switch1 = at_start              yes
                            ma97_switch2 = od_hd_reuse           yes
                                  ma97_u = 1e-06                 yes
                               ma97_umax = 0.5                   yes
                                max_iter = 2000                  yes
                    max_refinement_steps = 20                    yes
                    min_refinement_steps = 5                     yes
                                 mu_init = 1e-06                 yes
           mu_superlinear_decrease_power = 1.25                  yes
                   nlp_scaling_min_value = 1e-08                 yes
                        option_file_name = Preset_Case:_252_NCP.opt  yes
                             output_file = ./tmp/Preset_Case:_252_NCP.output  yes
                      print_user_options = yes                   yes
        required_infeasibility_reduction = 1                      no
                                     tol = 1e-08                 yes
                   warm_start_bound_frac = 1e-20                 yes
                   warm_start_bound_push = 1e-20                 yes
                   warm_start_init_point = yes                   yes
              warm_start_mult_bound_push = 1e-20                 yes
                warm_start_mult_init_max = 1e+40                 yes
             warm_start_slack_bound_frac = 1e-20                 yes
             warm_start_slack_bound_push = 1e-20                 yes

******************************************************************************
This program contains Ipopt, a library for large-scale nonlinear optimization.
 Ipopt is released as open source code under the Eclipse Public License (EPL).
         For more information visit http://projects.coin-or.org/Ipopt
******************************************************************************

This is Ipopt version 3.12.10, running with linear solver ma97.

Number of nonzeros in equality constraint Jacobian...:   117140
Number of nonzeros in inequality constraint Jacobian.:      213
Number of nonzeros in Lagrangian Hessian.............:    47462

Total number of variables............................:    29971
                     variables with only lower bounds:    11312
                variables with lower and upper bounds:    15132
                     variables with only upper bounds:        0
Total number of equality constraints.................:    29864
Total number of inequality constraints...............:       25
        inequality constraints with only lower bounds:        4
   inequality constraints with lower and upper bounds:        0
        inequality constraints with only upper bounds:       21

iter    objective    inf_pr   inf_du lg(mu)  ||d||  lg(rg) alpha_du alpha_pr  ls
   0 -4.5063388e-02 1.09e-01 1.00e+00  -6.0 0.00e+00    -  0.00e+00 0.00e+00   0
In iteration 0, 2 Slacks too small, adjusting variable bounds
   1 -4.5063388e-02 1.09e-01 4.54e+03  -6.0 6.61e+07  -4.0 2.15e-07 3.27e-17f  1
   2 -4.5120593e-02 1.09e-01 4.54e+03  -6.0 5.41e+03  -4.5 3.81e-04 1.27e-03f  1
   3 -4.5070993e-02 1.09e-01 4.52e+03  -6.0 4.99e+03  -5.0 5.16e-03 1.52e-03f  1
   4 -4.5055913e-02 1.09e-01 4.50e+03  -6.0 4.13e+03  -5.4 3.18e-03 3.48e-05f  3
   5 -4.3951347e-02 1.22e+01 4.48e+03  -6.0 4.23e+03  -5.9 4.00e-03 4.00e-03s 14
   6 -4.3933435e-02 1.22e+01 4.48e+03  -6.0 2.99e+03  -6.4 1.77e-04 1.77e-04s 14
   7 -4.3918168e-02 1.22e+01 4.48e+03  -6.0 3.83e+03  -6.9 3.45e-04 3.45e-04s 14
   8 -4.4220467e-02 1.22e+01 4.48e+03  -6.0 1.15e+04  -7.3 1.35e-03 1.35e-03s 14
   9 -4.4210214e-02 1.22e+01 4.48e+03  -6.0 3.97e+03  -6.9 1.05e-04 1.05e-04s 14
iter    objective    inf_pr   inf_du lg(mu)  ||d||  lg(rg) alpha_du alpha_pr  ls
  10 -4.4271051e-02 1.22e+01 4.47e+03  -6.0 1.14e+04  -7.4 2.48e-04 2.48e-04s 14
  11 -4.4265522e-02 1.22e+01 4.47e+03  -6.0 4.47e+03  -7.0 1.33e-04 1.33e-04s 14
  12 -4.4395590e-02 1.21e+01 4.47e+03  -6.0 1.27e+04  -7.4 4.86e-04 4.86e-04s 14
  13 -4.4347628e-02 1.23e+01 4.47e+03  -6.0 4.48e+03  -7.0 1.25e-03 1.25e-03s 14
  14 -4.4830232e-02 1.20e+01 4.45e+03  -6.0 1.37e+04  -7.5 3.75e-03 0.00e+00S 14
  15 -4.4828492e-02 1.20e+01 4.45e+03  -6.0 5.43e+04  -7.1 3.98e-04 3.21e-07h 12
  16 -4.4780007e-02 1.20e+01 4.36e+03  -6.0 3.02e+03  -6.6 1.99e-02 9.26e-05h  5
  17 -4.4744277e-02 1.20e+01 4.36e+03  -6.0 6.83e+03  -6.2 1.24e-08 5.87e-05h  5
  18 -4.4743846e-02 1.20e+01 4.22e+03  -6.0 7.37e+02  -4.9 3.28e-02 7.91e-05h  1
  19 -4.4729836e-02 1.20e+01 4.22e+03  -6.0 2.47e+03  -5.4 8.84e-05 1.58e-04h  6
iter    objective    inf_pr   inf_du lg(mu)  ||d||  lg(rg) alpha_du alpha_pr  ls
  20 -4.4717409e-02 1.20e+01 4.22e+03  -6.0 2.17e+03  -5.8 7.27e-05 8.02e-05h  6
  21r-4.4717409e-02 1.20e+01 1.00e+03   0.7 0.00e+00  -5.4 0.00e+00 3.52e-07R  3
  22r-4.4953627e-02 1.20e+01 7.90e+04   0.7 9.61e+05    -  2.82e-10 6.15e-09f  1
  23 -4.4953622e-02 1.20e+01 3.02e+03  -6.0 3.70e+02    -  1.74e-02 3.04e-06h  2
  24 -4.4950559e-02 1.20e+01 2.30e+04  -6.0 3.76e+02    -  1.23e-01 9.00e-04h  1
  25 -4.4660175e-02 1.17e+01 2.09e+04  -6.0 3.77e+02    -  5.50e-04 2.79e-02h  1
  26 -4.4280134e-02 1.14e+01 1.91e+04  -6.0 3.67e+02    -  1.09e-03 2.61e-02h  1
  27 -4.3611334e-02 1.07e+01 1.82e+04  -6.0 3.58e+02    -  1.97e-02 5.43e-02h  1
  28 -4.3087902e-02 1.02e+01 2.84e+04  -6.0 3.35e+02    -  2.27e-02 4.58e-02h  1
  29 -4.3010928e-02 1.02e+01 1.55e+04  -6.0 3.13e+02    -  3.31e-02 6.97e-03h  5
iter    objective    inf_pr   inf_du lg(mu)  ||d||  lg(rg) alpha_du alpha_pr  ls
  30 -4.2993830e-02 1.01e+01 1.56e+04  -6.0 3.06e+02    -  1.00e-02 1.41e-03h  8
  31 -4.2985111e-02 1.01e+01 8.36e+04  -6.0 3.05e+02    -  9.99e-02 7.36e-04h  9
  32 -4.2981583e-02 1.01e+01 8.57e+04  -6.0 3.03e+02    -  3.10e-03 2.93e-04h 11
  33 -4.2981153e-02 1.01e+01 1.07e+05  -6.0 3.03e+02    -  2.97e-02 3.65e-05h 14
  34 -3.9470442e-02 6.70e+00 1.31e+05  -6.0 3.03e+02    -  9.80e-04 2.98e-01h  1
  35 -3.9470606e-02 6.70e+00 9.67e+03  -6.0 1.63e+02    -  1.31e-01 9.24e-05h  1
  36 -4.0304847e-02 6.41e+00 5.83e+04  -6.0 5.13e+02    -  2.39e-07 4.33e-02h  1
  37 -4.2118380e-02 6.37e+00 5.80e+04  -6.0 6.79e+03    -  5.94e-03 5.95e-03h  1
  38 -4.3005515e-02 5.89e+00 8.91e+03  -6.0 4.43e+02    -  6.22e-03 7.20e-02f  1
  39 -4.3387283e-02 5.03e+00 9.21e+04  -6.0 2.46e+02    -  1.96e-02 1.40e-01h  1
iter    objective    inf_pr   inf_du lg(mu)  ||d||  lg(rg) alpha_du alpha_pr  ls
  40 -4.3225490e-02 4.74e+00 1.68e+05  -6.0 2.56e+02    -  6.69e-04 5.53e-02h  1
  41 -4.3072542e-02 4.03e+00 2.38e+05  -6.0 1.56e+02    -  2.90e-06 1.48e-01h  1
  42 -4.3118171e-02 3.96e+00 2.36e+05  -6.0 8.54e+01    -  1.18e-02 1.84e-02h  1
  43r-4.3118171e-02 3.96e+00 1.00e+03   0.2 0.00e+00    -  0.00e+00 4.73e-07R  2
  44r-4.3096618e-02 3.96e+00 1.85e+03   0.2 5.70e+03    -  2.69e-08 3.38e-07f  1
  45 -4.3096818e-02 3.96e+00 1.02e+06  -6.0 6.62e+01    -  9.16e-02 7.47e-05h  1
  46 -4.3099771e-02 3.95e+00 3.00e+06  -6.0 8.77e+02    -  7.93e-05 2.35e-04h  1
  47 -4.3627130e-02 3.87e+00 3.78e+06  -6.0 1.56e+03    -  3.08e-04 2.41e-02h  1
  48r-4.3627130e-02 3.87e+00 9.99e+02   0.2 0.00e+00    -  0.00e+00 4.26e-07R  5
  49r-4.3626113e-02 3.87e+00 2.17e+03   0.2 7.96e+03    -  1.65e-07 1.03e-08f  1
iter    objective    inf_pr   inf_du lg(mu)  ||d||  lg(rg) alpha_du alpha_pr  ls
  50r-4.3626113e-02 3.87e+00 9.99e+02   0.2 0.00e+00    -  0.00e+00 1.51e-07R  2
  51r-4.3621267e-02 3.87e+00 9.99e+02   0.2 1.73e+04    -  4.36e-07 3.97e-08f  1
  52 -4.3621433e-02 3.87e+00 6.83e+03  -6.0 5.34e+01    -  9.90e-03 5.70e-05h  1
  53 -4.3623706e-02 3.87e+00 6.66e+03  -6.0 1.51e+03    -  1.27e-04 1.24e-04h  1
  54 -4.3624303e-02 3.87e+00 2.26e+04  -6.0 1.57e+03    -  6.14e-03 3.20e-05h  1
  55 -4.3823019e-02 3.82e+00 7.59e+04  -6.0 1.62e+03    -  2.86e-04 1.28e-02f  1
  56 -4.3827969e-02 3.82e+00 7.60e+04  -6.0 1.62e+03    -  2.70e-02 4.07e-04h  1
  57 -4.4072789e-02 3.74e+00 7.44e+04  -6.0 1.71e+03    -  1.10e-03 2.21e-02h  1
  58 -4.4044472e-02 3.65e+00 7.28e+04  -6.0 1.42e+03    -  2.19e-02 2.22e-02h  1
  59 -4.4040885e-02 3.64e+00 7.24e+04  -6.0 1.11e+03    -  3.68e-07 4.68e-03h  1
iter    objective    inf_pr   inf_du lg(mu)  ||d||  lg(rg) alpha_du alpha_pr  ls
  60 -4.4011489e-02 3.59e+00 7.15e+04  -6.0 1.04e+03    -  1.73e-02 1.33e-02h  1
  61 -4.3885057e-02 3.53e+00 7.02e+04  -6.0 8.74e+02    -  3.00e-02 1.70e-02h  1
  62r-4.3885057e-02 3.53e+00 9.99e+02   0.2 0.00e+00    -  0.00e+00 3.62e-07R  4
  63r-4.3862552e-02 3.53e+00 2.69e+03   0.2 8.81e+03    -  1.27e-06 2.90e-07f  1
  64r-4.3862552e-02 3.53e+00 9.99e+02   0.2 0.00e+00    -  0.00e+00 4.85e-07R  3
  65r-4.3860451e-02 3.53e+00 1.15e+04   0.2 2.22e+04    -  1.35e-06 3.47e-08f  1
  66 -4.3860575e-02 3.53e+00 1.06e+07  -6.0 4.82e+01    -  1.38e-01 4.84e-05h  1
  67 -4.3880902e-02 3.50e+00 1.65e+09  -6.0 1.35e+03    -  5.08e-05 7.89e-03h  1
  68 -4.3901858e-02 3.40e+00 1.60e+09  -6.0 7.16e+02    -  9.82e-03 2.74e-02h  1
  69 -4.3891078e-02 3.24e+00 1.52e+09  -6.0 5.76e+02    -  5.54e-02 4.99e-02h  1
iter    objective    inf_pr   inf_du lg(mu)  ||d||  lg(rg) alpha_du alpha_pr  ls
  70 -4.3880378e-02 3.05e+00 1.44e+09  -6.0 4.03e+02    -  9.84e-02 5.64e-02h  1
  71 -4.3971301e-02 2.87e+00 1.35e+09  -6.0 2.91e+02    -  1.76e-02 6.10e-02h  1
  72 -4.4007108e-02 2.79e+00 1.31e+09  -6.0 2.23e+02    -  1.76e-01 2.82e-02h  1
  73 -4.4085044e-02 2.67e+00 1.25e+09  -6.0 1.94e+02    -  6.14e-02 4.41e-02h  1
  74 -4.4138009e-02 2.58e+00 1.21e+09  -6.0 1.67e+02    -  1.88e-01 3.44e-02h  1
  75 -4.4400179e-02 2.14e+00 9.97e+08  -6.0 1.51e+02    -  2.31e-01 1.76e-01h  1
  76 -4.4492369e-02 1.51e+00 6.93e+08  -6.0 1.13e+02    -  5.43e-01 3.05e-01h  1
  77 -4.4516545e-02 1.39e+00 6.37e+08  -6.0 5.45e+01    -  2.38e-01 8.04e-02h  1
  78 -4.4529377e-02 1.35e+00 6.19e+08  -6.0 4.62e+01    -  7.19e-03 2.85e-02h  1
  79 -4.4530366e-02 1.35e+00 6.17e+08  -6.0 4.38e+01    -  8.93e-04 2.86e-03h  1
iter    objective    inf_pr   inf_du lg(mu)  ||d||  lg(rg) alpha_du alpha_pr  ls
  80 -4.4530862e-02 1.34e+00 6.16e+08  -6.0 4.32e+01    -  4.23e-02 1.61e-03h  1
  81 -4.4692453e-02 7.74e-01 3.43e+08  -6.0 4.37e+01    -  6.06e-05 4.43e-01h  1
  82 -4.4689063e-02 3.44e-01 1.47e+08  -6.0 1.99e+01    -  6.79e-01 5.72e-01h  1
  83 -4.4690935e-02 1.05e-02 2.04e+04  -6.0 7.40e+00    -  7.65e-01 1.00e+00h  1
  84 -4.4882836e-02 9.23e-03 1.37e+05  -6.0 4.94e+00    -  3.36e-01 6.11e-01h  1
  85r-4.4882836e-02 9.23e-03 1.00e+03  -2.4 0.00e+00    -  0.00e+00 2.58e-07R  4
  86r-4.4888502e-02 5.05e-03 9.99e+02  -2.4 4.52e+02    -  6.97e-04 4.52e-04f  1
  87 -4.4912753e-02 1.81e-05 8.22e+07  -6.0 2.62e-01    -  1.70e-01 1.00e+00h  1
  88 -4.4914873e-02 1.35e-05 7.33e+07  -6.0 9.24e-02    -  9.72e-01 2.55e-01h  1
  89 -4.5249302e-02 1.30e-03 1.95e+05  -6.0 3.34e+00    -  5.88e-01 1.00e+00f  1
iter    objective    inf_pr   inf_du lg(mu)  ||d||  lg(rg) alpha_du alpha_pr  ls
  90 -4.5901357e-02 3.48e-03 1.53e+05  -6.0 8.28e+00    -  2.14e-01 1.00e+00h  1
  91 -4.6685368e-02 1.76e-04 9.57e+04  -6.0 1.06e+01    -  3.74e-01 1.00e+00H  1
  92 -4.7476530e-02 2.63e-03 2.32e+04  -6.0 1.70e+01    -  7.57e-01 6.62e-01H  1
  93 -5.0296985e-02 1.33e-01 1.61e+04  -6.0 7.29e+01    -  3.07e-01 6.55e-01f  1
  94 -5.2225652e-02 1.76e-01 6.57e+03  -6.0 1.10e+02    -  5.92e-01 3.26e-01h  1
  95 -5.6670749e-02 5.64e-01 3.61e+03  -6.0 2.98e+02    -  4.50e-01 2.95e-01h  1
  96 -5.9762527e-02 6.56e-01 3.41e+03  -6.0 6.26e+02    -  5.52e-02 1.05e-01h  1
  97 -6.0319212e-02 6.37e-01 3.28e+03  -6.0 2.30e+02    -  3.99e-02 3.94e-02h  1
  98 -6.0672590e-02 6.14e-01 1.61e+04  -6.0 1.78e+02    -  3.90e-01 3.73e-02h  1
  99 -6.5026814e-02 1.59e+00 6.60e+03  -6.0 2.94e+02    -  1.65e-01 3.21e-01h  1
iter    objective    inf_pr   inf_du lg(mu)  ||d||  lg(rg) alpha_du alpha_pr  ls
 100 -7.7312525e-02 8.20e+00 1.38e+06  -6.0 5.34e+02    -  1.33e-02 8.37e-01h  1
 101 -8.1122879e-02 7.34e+00 1.02e+06  -6.0 5.73e+02    -  6.25e-03 2.64e-01h  1
 102 -8.3791596e-02 5.64e+00 7.87e+05  -6.0 5.39e+02    -  2.53e-01 2.28e-01h  1
 103 -8.9340513e-02 2.35e+01 4.38e+05  -6.0 1.10e+03    -  5.38e-02 4.43e-01h  1
 104 -9.3422035e-02 1.81e+01 3.29e+05  -6.0 9.25e+02    -  3.89e-01 2.49e-01h  1
 105 -9.3721059e-02 1.07e+01 1.93e+05  -6.0 4.53e+01  -5.9 7.93e-02 4.10e-01h  1
 106 -9.3888016e-02 1.06e+01 1.91e+05  -6.0 9.94e+02    -  1.41e-01 1.33e-02h  1
 107 -9.4828202e-02 9.87e+00 1.76e+05  -6.0 9.71e+02    -  8.38e-02 7.83e-02h  1
 108 -9.6552853e-02 7.31e+00 1.42e+05  -6.0 2.24e+03    -  1.79e-01 1.95e-01h  1
 109 -9.6612684e-02 6.21e+00 1.20e+05  -6.0 2.03e+01  -6.4 8.11e-02 1.52e-01h  1
iter    objective    inf_pr   inf_du lg(mu)  ||d||  lg(rg) alpha_du alpha_pr  ls
 110 -9.6763666e-02 5.08e+00 9.80e+04  -6.0 2.72e+01  -6.8 2.15e-01 1.84e-01h  1
 111 -9.6834163e-02 4.88e+00 9.41e+04  -6.0 8.24e+01  -7.3 7.22e-01 3.99e-02h  1
 112 -9.8157719e-02 3.86e+00 4.12e+04  -6.0 2.17e+02  -7.8 1.32e-01 5.59e-01h  1
 113 -9.9925242e-02 6.39e+00 2.98e+04  -6.0 8.60e+02  -8.3 3.50e-01 2.78e-01h  1
 114 -1.0125854e-01 8.32e+00 1.00e+04  -6.0 2.88e+02  -7.9 9.06e-01 6.63e-01h  1
 115 -1.0407820e-01 2.56e+01 4.92e+03  -6.0 9.57e+02  -8.3 4.70e-01 5.09e-01h  1
 116 -1.0605253e-01 1.90e+01 3.52e+03  -6.0 7.67e+02  -8.8 5.81e-01 2.85e-01h  1
 117 -1.0819071e-01 1.64e+01 3.03e+03  -6.0 6.35e+03  -9.3 6.88e-02 1.40e-01h  1
 118 -1.1107739e-01 1.30e+01 2.37e+03  -6.0 2.66e+03  -9.8 1.27e-01 2.17e-01h  1
 119 -1.1195601e-01 1.23e+01 2.13e+03  -6.0 1.81e+03  -9.3 4.24e-01 1.02e-01h  1
iter    objective    inf_pr   inf_du lg(mu)  ||d||  lg(rg) alpha_du alpha_pr  ls
 120 -1.1460919e-01 1.47e+01 1.73e+03  -6.0 4.90e+03  -9.8 1.05e-01 1.89e-01h  1
 121 -1.1466619e-01 1.47e+01 1.72e+03  -6.0 1.29e+04 -10.3 2.47e-02 2.45e-03h  1
 122 -1.1532715e-01 1.30e+01 2.43e+03  -6.0 1.40e+03  -9.9 2.66e-01 1.15e-01h  1
 123 -1.1738605e-01 9.07e+00 1.68e+03  -6.0 5.26e+03 -10.3 3.42e-01 3.05e-01h  1
 124 -1.1778130e-01 8.36e+00 1.48e+03  -6.0 1.19e+03  -9.0 1.48e-01 1.16e-01h  1
 125 -1.1893800e-01 9.10e+00 1.04e+03  -6.0 1.42e+03  -9.5 3.43e-02 3.33e-01h  1
 126 -1.1890857e-01 9.06e+00 1.93e+04  -6.0 6.84e+02  -6.4 1.15e-05 3.96e-03h  1
 127 -1.1892592e-01 8.79e+00 1.81e+04  -6.0 8.09e+01  -5.9 5.33e-03 3.69e-02h  1
 128 -1.1892311e-01 8.64e+00 1.78e+04  -6.0 1.32e+02  -6.4 2.15e-02 1.90e-02h  1
 129 -1.1898246e-01 8.29e+00 1.70e+04  -6.0 1.37e+02  -6.9 2.45e-04 4.40e-02h  1
iter    objective    inf_pr   inf_du lg(mu)  ||d||  lg(rg) alpha_du alpha_pr  ls
 130 -1.1897978e-01 8.29e+00 1.70e+04  -6.0 6.24e+04  -7.4 5.75e-10 2.66e-05f  2
 131 -1.1901013e-01 7.78e+00 1.55e+04  -6.0 3.24e+01  -6.0 2.31e-02 9.20e-02h  1
 132 -1.1901212e-01 7.53e+00 1.50e+04  -6.0 5.99e+01  -6.5 1.36e-01 3.35e-02f  1
 133 -1.1904727e-01 6.94e+00 1.23e+04  -6.0 1.47e+01  -7.0 4.01e-02 1.77e-01h  1
 134 -1.1903377e-01 6.83e+00 1.21e+04  -6.0 6.60e+01  -6.6 2.02e-02 1.54e-02h  1
 135 -1.1903724e-01 6.49e+00 1.15e+04  -6.0 5.57e+01  -7.0 3.60e-04 5.05e-02f  1
 136 -1.1910763e-01 4.01e-01 8.38e+01  -6.0 3.45e+01  -7.5 7.94e-02 1.00e+00h  1
 137 -1.1976855e-01 6.64e-01 4.98e+01  -6.0 1.17e+02  -8.0 1.43e-01 7.83e-01h  1
 138 -1.1977648e-01 6.60e-01 2.27e+02  -6.0 1.81e+02  -8.5 8.67e-02 5.51e-03h  1
 139 -1.2052053e-01 1.76e+00 4.69e+01  -6.0 3.47e+02  -8.9 3.09e-01 3.43e-01f  1
iter    objective    inf_pr   inf_du lg(mu)  ||d||  lg(rg) alpha_du alpha_pr  ls
 140 -1.2085946e-01 1.49e+00 4.00e+03  -6.0 7.82e+02  -9.4 4.91e-01 1.50e-01h  1
 141 -1.2176718e-01 5.66e-01 4.32e+02  -6.0 3.91e+02  -9.0 3.49e-01 5.26e-01h  1
 142 -1.2227322e-01 5.02e-01 1.09e+03  -6.0 7.59e+02  -9.5 2.47e-01 2.16e-01h  1
 143 -1.2245573e-01 7.86e-01 2.17e+03  -6.0 1.43e+04  -9.9 3.29e-02 1.34e-02h  1
 144 -1.2388193e-01 5.40e+00 1.22e+04  -6.0 3.62e+03 -10.4 5.47e-01 2.58e-01h  1
 145 -1.2464543e-01 3.99e+00 4.09e+04  -6.0 1.26e+03 -10.0 9.45e-01 2.64e-01h  1
 146 -1.2654011e-01 7.11e+00 2.08e+03  -6.0 4.32e+03 -10.5 1.12e-01 5.23e-01h  1
 147 -1.2745996e-01 5.36e+00 1.01e+04  -6.0 1.74e+03 -10.1 3.43e-01 3.01e-01h  1
 148r-1.2745996e-01 5.36e+00 1.00e+03   0.5 0.00e+00  -9.6 0.00e+00 2.68e-07R  3
 149r-1.2746412e-01 5.36e+00 5.89e+04   0.5 1.40e+04    -  1.95e-06 9.86e-07f  1
iter    objective    inf_pr   inf_du lg(mu)  ||d||  lg(rg) alpha_du alpha_pr  ls
 150 -1.2746457e-01 5.33e+00 2.48e+03  -6.0 1.34e+01    -  3.33e-02 5.00e-03h  1
 151 -1.2746052e-01 5.01e+00 1.97e+03  -6.0 1.24e+01    -  2.03e-01 6.03e-02h  1
 152 -1.2743998e-01 4.57e+00 1.84e+03  -6.0 1.20e+01    -  6.52e-02 8.81e-02h  1
 153 -1.2729781e-01 2.56e+00 1.59e+03  -6.0 1.39e+01    -  1.49e-01 4.39e-01h  1
 154 -1.2724680e-01 1.95e+00 8.24e+02  -6.0 9.98e+00    -  4.76e-01 2.39e-01h  1
 155 -1.2723776e-01 1.94e+00 7.80e+02  -6.0 2.13e+02    -  6.28e-02 4.72e-03h  1
 156 -1.2662614e-01 1.48e+00 7.21e+02  -6.0 1.88e+02    -  5.82e-02 2.38e-01h  1
 157 -1.2651239e-01 7.59e-01 5.96e+02  -6.0 2.44e+01    -  1.88e-01 4.89e-01h  1
 158 -1.2646222e-01 1.90e-03 2.89e+02  -6.0 4.65e+00    -  5.45e-01 1.00e+00h  1
 159 -1.2650231e-01 8.27e-05 3.14e+01  -6.0 5.24e-01    -  9.09e-01 1.00e+00h  1
iter    objective    inf_pr   inf_du lg(mu)  ||d||  lg(rg) alpha_du alpha_pr  ls
 160 -1.2662719e-01 8.32e-04 3.03e+01  -6.0 5.65e+00    -  8.58e-01 3.05e-01h  1
 161 -1.2685582e-01 9.62e-03 2.83e+01  -6.0 2.82e+01    -  2.25e-01 1.54e-01f  1
 162 -1.2719991e-01 1.86e-02 4.24e+01  -6.0 5.75e+01    -  6.84e-01 1.27e-01f  1
 163 -1.2731303e-01 1.78e-02 4.22e+01  -6.0 7.47e+01    -  1.61e-01 4.44e-02h  1
 164 -1.2766678e-01 1.93e-02 3.67e+01  -6.0 6.92e+01    -  5.38e-01 2.24e-01h  1
 165 -1.2805149e-01 3.66e-01 3.23e+01  -6.0 6.31e+02    -  4.04e-02 1.05e-01h  1
 166 -1.2804293e-01 3.40e-01 3.29e+01  -6.0 5.65e+01    -  6.00e-01 7.25e-02h  1
 167 -1.2809000e-01 3.04e-01 3.20e+01  -6.0 1.63e+02    -  2.11e-01 6.11e-02h  1
 168 -1.2841304e-01 5.47e-01 9.51e+00  -6.0 1.19e+02    -  4.73e-01 7.31e-01h  1
 169 -1.2853890e-01 2.56e-01 1.89e+01  -6.0 1.64e+02    -  3.79e-01 5.43e-01h  1
iter    objective    inf_pr   inf_du lg(mu)  ||d||  lg(rg) alpha_du alpha_pr  ls
 170 -1.2880898e-01 1.96e-01 3.34e+01  -6.0 9.36e+01    -  5.25e-01 7.41e-01h  1
 171 -1.2903217e-01 4.66e-01 1.24e+01  -6.0 1.52e+02    -  8.84e-01 8.20e-01h  1
 172 -1.2918085e-01 5.23e-01 1.81e+02  -6.0 9.67e+02    -  4.73e-01 2.29e-01h  1
 173 -1.2964741e-01 1.30e+00 1.56e+02  -6.0 1.72e+03    -  5.70e-01 4.91e-01H  1
 174 -1.2976131e-01 1.47e+00 5.03e+02  -6.0 6.64e+03    -  2.90e-01 7.37e-02h  3
 175 -1.3059478e-01 6.86e-01 2.95e+02  -6.0 1.19e+03 -10.1 8.02e-01 9.64e-01H  1
 176 -1.3098595e-01 7.45e-01 2.13e+02  -6.0 8.33e+02  -9.7 6.02e-01 6.11e-01h  1
 177 -1.3107742e-01 5.84e-01 2.96e+03  -6.0 1.95e+02  -8.3 5.90e-01 2.20e-01h  1
 178 -1.3136816e-01 7.23e-01 3.46e+03  -6.0 2.17e+02  -8.8 3.48e-01 6.62e-01h  1
 179 -1.3141057e-01 6.94e-01 6.24e+01  -6.0 2.90e+02  -8.4 1.52e-01 4.63e-02h  1
iter    objective    inf_pr   inf_du lg(mu)  ||d||  lg(rg) alpha_du alpha_pr  ls
 180 -1.3160644e-01 7.40e-01 1.13e+04  -6.0 3.31e+02  -8.9 5.25e-01 2.96e-01h  1
 181 -1.3194614e-01 7.63e-01 1.31e+07  -6.0 1.00e+03  -9.4 1.33e-03 3.66e-01h  1
 182 -1.3222025e-01 1.61e+00 1.24e+07  -6.0 8.39e+03  -9.8 9.03e-02 5.88e-02h  1
 183 -1.3224389e-01 1.60e+00 1.23e+07  -6.0 1.10e+05  -9.4 7.25e-04 1.04e-03h  1
 184 -1.3251843e-01 2.86e+00 1.09e+07  -6.0 5.09e+03  -9.9 2.17e-01 1.15e-01h  1
 185 -1.3265446e-01 4.80e+00 1.02e+07  -6.0 3.16e+03  -9.5 3.52e-01 6.55e-02h  1
 186 -1.3296238e-01 3.07e+00 6.16e+06  -6.0 1.03e+03  -9.9 2.49e-01 3.97e-01h  1
 187 -1.3339489e-01 3.76e+00 3.94e+06  -6.0 1.58e+03 -10.4 2.54e-01 3.60e-01f  1
 188 -1.3341718e-01 6.50e+00 3.77e+06  -6.0 1.30e+04 -10.9 4.06e-02 4.31e-02h  1
 189 -1.3345036e-01 3.98e+01 3.55e+06  -6.0 2.98e+04    -  8.99e-02 5.84e-02h  1
iter    objective    inf_pr   inf_du lg(mu)  ||d||  lg(rg) alpha_du alpha_pr  ls
 190 -1.3345282e-01 5.00e+01 3.45e+06  -6.0 3.44e+04    -  1.71e-02 2.82e-02h  1
 191 -1.3352498e-01 6.59e+01 3.21e+06  -6.0 1.88e+04    -  1.01e-02 6.88e-02h  1
 192 -1.3350516e-01 5.88e+01 2.83e+06  -6.0 2.09e+03    -  1.40e-03 1.18e-01f  1
 193 -1.3351258e-01 5.53e+01 2.67e+06  -6.0 8.71e+02  -5.9 5.14e-05 5.89e-02h  1
 194 -1.3355253e-01 5.23e+01 2.52e+06  -6.0 4.75e+02  -5.5 7.30e-02 5.43e-02h  1
 195 -1.3363870e-01 3.93e+01 1.89e+06  -6.0 1.73e+02  -6.0 1.10e-01 2.49e-01h  1
 196 -1.3369801e-01 2.48e+01 1.19e+06  -6.0 2.48e+02  -6.5 1.30e-01 3.72e-01h  1
 197 -1.3356763e-01 2.15e+01 1.03e+06  -6.0 3.83e+02  -6.9 1.74e-01 1.33e-01h  2
 198 -1.3351217e-01 2.04e+01 9.79e+05  -6.0 4.42e+02  -6.5 6.39e-02 4.96e-02h  3
 199 -1.3352447e-01 1.96e+01 9.39e+05  -6.0 4.25e+02  -6.1 1.88e-01 4.09e-02h  1
iter    objective    inf_pr   inf_du lg(mu)  ||d||  lg(rg) alpha_du alpha_pr  ls
 200 -1.3353500e-01 1.88e+01 9.02e+05  -6.0 1.50e+01  -5.7 1.44e-01 4.01e-02h  1
 201 -1.3362290e-01 1.63e+01 7.83e+05  -6.0 4.42e+01  -6.1 7.27e-02 1.32e-01h  1
 202 -1.3366590e-01 5.87e+00 2.81e+05  -6.0 3.94e+00  -5.7 3.53e-01 6.40e-01h  1
 203 -1.3380493e-01 1.33e+00 6.35e+04  -6.0 1.06e+01  -6.2 4.62e-01 7.74e-01h  1
 204 -1.3381247e-01 1.25e+00 5.98e+04  -6.0 2.35e+01  -6.7 2.52e-01 5.86e-02h  1
 205 -1.3390416e-01 7.08e-01 3.39e+04  -6.0 1.08e+01  -7.2 1.00e+00 4.33e-01h  1
 206 -1.3412203e-01 1.45e-01 8.10e+01  -6.0 2.73e+01  -7.6 1.00e+00 1.00e+00h  1
 207 -1.3420526e-01 8.51e-02 1.77e+01  -6.0 6.71e+01  -8.1 1.00e+00 4.16e-01h  1
 208 -1.3452420e-01 5.44e-01 1.03e+01  -6.0 1.34e+02  -8.6 1.00e+00 1.00e+00h  1
 209 -1.3472957e-01 6.67e-01 9.29e+00  -6.0 1.99e+02  -9.1 8.42e-01 6.92e-01h  1
iter    objective    inf_pr   inf_du lg(mu)  ||d||  lg(rg) alpha_du alpha_pr  ls
 210 -1.3494711e-01 1.76e+00 1.90e+01  -6.0 3.69e+02  -9.5 1.44e-01 7.01e-01h  1
 211 -1.3494409e-01 1.73e+00 2.17e+01  -6.0 6.98e+03 -10.0 5.23e-02 1.59e-02h  1
 212 -1.3502233e-01 9.47e+00 1.81e+01  -6.0 4.82e+03 -10.5 1.75e-01 1.58e-01h  1
 213 -1.3509483e-01 8.99e+00 3.29e+01  -6.0 1.80e+03 -11.0 5.19e-01 1.54e-01h  1
 214 -1.3526560e-01 9.50e+00 2.55e+01  -6.0 2.33e+03    -  5.10e-01 3.58e-01h  1
 215 -1.3541369e-01 5.40e+00 7.33e+01  -6.0 1.91e+03    -  1.00e+00 4.64e-01h  1
 216 -1.3544679e-01 4.46e+00 2.02e+02  -6.0 1.36e+03    -  1.00e+00 1.74e-01h  1
 217 -1.3552111e-01 1.57e+00 1.58e+01  -6.0 1.19e+03    -  3.69e-03 6.48e-01h  1
 218 -1.3585819e-01 7.99e-01 1.11e+02  -6.0 4.63e+02    -  6.88e-01 1.00e+00h  1
 219 -1.3575606e-01 3.11e-01 1.12e+03  -6.0 9.05e+01  -7.8 8.38e-02 7.82e-01h  1
iter    objective    inf_pr   inf_du lg(mu)  ||d||  lg(rg) alpha_du alpha_pr  ls
 220 -1.3574577e-01 1.23e+00 8.28e+02  -6.0 7.27e+02    -  5.08e-01 2.61e-01h  1
 221 -1.3553533e-01 3.48e-01 2.91e+03  -6.0 5.51e+02    -  4.69e-01 1.00e+00H  1
 222 -1.3556014e-01 5.94e-03 3.39e+00  -6.0 1.46e+01  -7.4 1.00e+00 1.00e+00h  1
 223 -1.3559147e-01 3.10e-02 4.33e-01  -6.0 3.34e+01  -7.9 1.00e+00 1.00e+00h  1
 224 -1.3561071e-01 2.69e-01 1.98e+00  -6.0 9.86e+01  -8.4 1.00e+00 1.00e+00h  1
 225 -1.3563572e-01 1.36e+00 1.15e+01  -6.0 3.13e+02  -8.8 7.35e-01 6.89e-01h  1
 226 -1.3565173e-01 2.92e-01 3.39e+01  -6.0 1.33e+02    -  1.00e+00 1.00e+00h  1
 227 -1.3567031e-01 1.14e+00 5.52e+02  -6.0 8.97e+02  -9.3 1.69e-01 2.06e-01h  1
 228 -1.3569693e-01 3.04e-01 1.03e+04  -6.0 1.55e+02    -  5.13e-01 1.00e+00h  1
 229 -1.3575670e-01 2.73e-01 1.99e+01  -6.0 9.95e+01  -8.9 9.88e-01 1.00e+00h  1
iter    objective    inf_pr   inf_du lg(mu)  ||d||  lg(rg) alpha_du alpha_pr  ls
 230 -1.3578864e-01 6.22e-02 4.50e+00  -6.0 9.84e+00  -7.6 7.66e-01 1.00e+00h  1
 231 -1.3583728e-01 3.48e-02 3.00e+00  -6.0 8.18e+00  -7.1 1.00e+00 1.00e+00h  1
 232 -1.3586473e-01 1.72e-02 5.49e-01  -6.0 3.58e+00  -6.7 1.00e+00 1.00e+00h  1
 233 -1.3593658e-01 1.51e-01 5.13e+00  -6.0 1.90e+01  -7.2 5.08e-01 5.47e-01h  1
 234 -1.3595038e-01 4.20e-01 3.36e+01  -6.0 3.04e+03    -  6.11e-02 4.98e-02h  2
 235 -1.3597222e-01 2.91e-01 5.66e+02  -6.0 1.75e+01  -7.7 1.00e+00 3.07e-01h  1
 236 -1.3597837e-01 6.30e-01 6.01e+02  -6.0 1.67e+04    -  1.21e-02 9.04e-03h  2
 237 -1.3604381e-01 6.04e-01 4.05e+02  -6.0 4.00e+01  -8.1 5.21e-01 1.00e+00h  1
 238 -1.3609116e-01 6.21e-01 8.14e+02  -6.0 1.31e+01  -7.7 7.75e-01 4.38e-01h  1
 239 -1.3613552e-01 2.08e-01 8.11e+02  -6.0 5.67e+01  -8.2 1.42e-01 1.00e+00h  1
iter    objective    inf_pr   inf_du lg(mu)  ||d||  lg(rg) alpha_du alpha_pr  ls
 240 -1.3609097e-01 1.12e-01 1.15e+00  -6.0 5.82e+01  -8.7 1.00e+00 1.00e+00h  1
 241 -1.3612416e-01 7.19e-02 3.25e+01  -6.0 1.83e+02  -9.1 1.00e+00 2.31e-01h  2
 242 -1.3613929e-01 2.68e+01 1.04e+02  -6.0 1.86e+03    -  1.55e-01 6.89e-01h  1
 243 -1.3622332e-01 6.03e+00 3.96e+01  -6.0 4.96e+02    -  2.54e-01 8.14e-01h  1
 244 -1.3622188e-01 3.53e-01 1.23e+01  -6.0 7.82e+01  -9.6 6.20e-01 1.00e+00h  1
 245 -1.3621879e-01 1.17e+00 2.96e+01  -6.0 7.84e+02    -  1.32e-01 4.79e-01H  1
 246 -1.3620878e-01 2.11e+00 2.53e+01  -6.0 3.53e+02 -10.1 2.61e-01 7.19e-01h  1
 247 -1.3622978e-01 7.03e-01 2.99e+00  -6.0 2.54e+02  -9.7 1.00e+00 8.19e-01h  1
 248 -1.3627476e-01 2.43e+00 2.66e+00  -6.0 2.78e+02 -10.2 1.00e+00 1.00e+00h  1
 249 -1.3630403e-01 7.82e-01 4.64e+00  -6.0 5.73e+02    -  4.21e-01 8.11e-01H  1
iter    objective    inf_pr   inf_du lg(mu)  ||d||  lg(rg) alpha_du alpha_pr  ls
 250 -1.3631003e-01 3.50e-01 3.40e-02  -6.0 1.31e+02  -9.7 1.00e+00 1.00e+00h  1
 251 -1.3633547e-01 3.70e+00 6.80e+00  -6.0 5.56e+02 -10.2 3.49e-01 1.00e+00h  1
 252 -1.3634056e-01 1.66e-01 2.57e-01  -6.0 1.13e+02  -9.8 1.00e+00 1.00e+00h  1
 253 -1.3635343e-01 1.30e+00 2.48e+00  -6.0 3.26e+02 -10.3 1.00e+00 1.00e+00h  1
 254 -1.3637706e-01 6.13e+00 1.30e+01  -6.0 5.62e+04 -10.7 1.19e-02 1.13e-02h  2
 255 -1.3638432e-01 5.84e+00 1.14e+02  -6.0 1.56e+03 -10.3 5.71e-01 7.96e-02h  2
 256 -1.3639475e-01 6.16e+00 1.10e+02  -6.0 1.29e+04    -  2.63e-02 1.36e-02h  2
 257 -1.3638684e-01 3.88e+00 3.11e+01  -6.0 3.58e+02  -9.9 1.00e+00 4.14e-01h  1
 258 -1.3641802e-01 4.59e+00 2.95e+01  -6.0 3.55e+04    -  2.60e-02 6.68e-03h  1
 259 -1.3654519e-01 1.13e+01 1.61e+01  -6.0 9.36e+02 -10.4 1.00e+00 1.00e+00h  1
iter    objective    inf_pr   inf_du lg(mu)  ||d||  lg(rg) alpha_du alpha_pr  ls
 260 -1.3691188e-01 5.68e+01 6.87e+01  -6.0 9.93e+03    -  4.11e-02 3.70e-01H  1
 261 -1.3690369e-01 7.41e-02 2.77e+01  -6.0 1.44e+01  -8.1 6.65e-01 1.00e+00h  1
 262 -1.3701857e-01 1.16e+01 1.57e+01  -6.0 1.99e+03    -  3.43e-01 4.49e-01h  2
 263 -1.3700752e-01 3.90e-02 4.76e+00  -6.0 5.62e+01    -  6.00e-01 1.00e+00h  1
 264 -1.3700965e-01 3.95e-01 2.04e+00  -6.0 1.42e+01  -8.6 6.60e-01 1.00e+00h  1
 265 -1.3701472e-01 8.57e-01 3.35e+00  -6.0 1.11e+02  -9.1 3.98e-01 9.86e-02h  4
 266 -1.3707671e-01 1.77e+00 4.41e+01  -6.0 1.60e+02  -9.6 3.39e-01 1.00e+00H  1
 267 -1.3727090e-01 2.80e+01 1.15e+02  -6.0 4.25e+02 -10.0 2.09e-01 1.00e+00H  1
 268 -1.3723767e-01 1.68e+01 1.12e+02  -6.0 2.18e+01  -7.8 7.77e-01 5.00e-01h  2
 269 -1.3725940e-01 5.03e+00 1.08e+02  -6.0 1.61e+02  -8.3 1.73e-01 1.63e-01h  1
iter    objective    inf_pr   inf_du lg(mu)  ||d||  lg(rg) alpha_du alpha_pr  ls
 270 -1.3718531e-01 1.15e+00 1.41e+01  -6.0 2.43e+01  -8.8 1.00e+00 1.00e+00h  1
 271 -1.3720498e-01 2.32e+00 2.78e+01  -6.0 9.48e+01  -9.2 5.53e-01 2.44e-01h  2
 272 -1.3722604e-01 1.88e+00 1.69e+01  -6.0 2.26e+02  -9.7 1.00e+00 5.76e-01h  1
 273 -1.3729768e-01 2.00e+00 1.21e+01  -6.0 4.54e+02 -10.2 5.28e-01 7.88e-01h  1
 274 -1.3733674e-01 4.11e+00 9.56e+00  -6.0 1.90e+03 -10.7 1.98e-01 2.41e-01h  3
 275 -1.3735348e-01 7.25e+00 9.43e+00  -6.0 2.22e+04    -  1.95e-02 1.93e-02h  3
 276 -1.3737694e-01 9.62e+00 8.74e+00  -6.0 4.16e+03    -  8.41e-02 9.99e-02h  3
 277 -1.3745703e-01 9.82e+00 4.33e+00  -6.0 1.02e+03    -  8.44e-01 7.54e-01h  1
 278 -1.3750737e-01 1.90e+00 3.23e+00  -6.0 3.31e+02    -  1.00e+00 1.00e+00h  1
 279 -1.3749388e-01 1.66e+00 2.22e+01  -6.0 2.43e+02    -  6.67e-01 8.81e-01h  1
iter    objective    inf_pr   inf_du lg(mu)  ||d||  lg(rg) alpha_du alpha_pr  ls
 280 -1.3743373e-01 6.60e+00 7.02e+00  -6.0 3.91e+02    -  1.00e+00 1.00e+00h  1
 281 -1.3760951e-01 1.83e+00 1.95e+01  -6.0 5.43e+02    -  6.78e-01 1.00e+00h  1
 282 -1.3780406e-01 5.18e+00 3.75e+01  -6.0 7.71e+03 -10.2 1.48e-01 8.07e-02h  1
 283 -1.3810592e-01 3.44e+00 1.06e+01  -6.0 1.32e+03    -  1.00e+00 1.00e+00h  1
 284 -1.3807061e-01 2.37e+00 3.32e+00  -6.0 1.00e+03    -  1.00e+00 1.00e+00h  1
 285 -1.3802436e-01 3.98e-01 5.56e-01  -6.0 3.31e+02    -  1.00e+00 1.00e+00h  1
 286 -1.3801608e-01 2.87e-02 6.39e-02  -6.0 8.38e+01    -  1.00e+00 1.00e+00h  1
 287 -1.3801530e-01 1.75e-04 2.76e-04  -6.0 6.95e+00    -  1.00e+00 1.00e+00h  1
 288 -1.3801530e-01 5.15e-09 7.68e-09  -6.0 3.53e-02    -  1.00e+00 1.00e+00h  1
 289 -1.3854574e-01 6.26e+00 8.84e+00  -7.5 3.77e+03    -  1.68e-01 1.68e-01f  1
iter    objective    inf_pr   inf_du lg(mu)  ||d||  lg(rg) alpha_du alpha_pr  ls
 290 -1.3876187e-01 7.07e+00 1.62e+01  -7.5 4.31e+03    -  5.36e-02 8.38e-02h  1
 291 -1.3910312e-01 6.85e+00 3.20e+01  -7.5 1.51e+03 -10.7 3.98e-01 2.32e-01h  1
 292 -1.3926548e-01 5.71e+00 7.48e+01  -7.5 7.83e+02 -10.3 5.77e-01 2.14e-01h  1
 293 -1.3944336e-01 7.92e+00 5.01e+01  -7.5 2.96e+03    -  5.76e-03 1.87e-01h  1
 294 -1.3970364e-01 2.96e+01 2.05e+01  -7.5 3.24e+03    -  1.68e-01 3.80e-01h  1
 295 -1.3975338e-01 2.52e+01 1.46e+01  -7.5 1.60e+03    -  8.68e-02 1.49e-01h  1
 296 -1.3989515e-01 1.32e+01 1.09e+01  -7.5 1.46e+03    -  3.31e-01 4.81e-01h  1
 297 -1.3993659e-01 9.77e+00 6.19e+00  -7.5 1.37e+03    -  3.37e-01 2.65e-01h  1
 298 -1.3998483e-01 7.08e+00 1.56e+01  -7.5 4.25e+02 -10.8 1.35e-01 2.93e-01h  1
 299 -1.4000474e-01 6.22e+00 1.96e+01  -7.5 1.02e+03    -  8.04e-02 1.26e-01h  1
iter    objective    inf_pr   inf_du lg(mu)  ||d||  lg(rg) alpha_du alpha_pr  ls
 300 -1.4007149e-01 3.56e+00 6.14e+01  -7.5 7.76e+02    -  1.44e-01 4.83e-01h  1
 301 -1.4012550e-01 1.93e+00 4.50e+00  -7.5 5.12e+02    -  5.87e-01 4.69e-01h  1
 302 -1.4022490e-01 1.48e+00 3.29e+01  -7.5 2.83e+02    -  8.47e-01 9.35e-01h  1
 303 -1.4027250e-01 3.22e+00 2.12e+02  -7.5 9.64e+02    -  2.64e-01 4.42e-01h  1
 304 -1.4030838e-01 2.14e+00 3.18e+02  -7.5 4.70e+02    -  5.66e-01 3.26e-01h  1
 305 -1.4035146e-01 3.79e+01 4.03e+02  -7.5 4.75e+03    -  1.04e-01 3.69e-01h  1
 306 -1.4036466e-01 3.40e+01 1.08e+03  -7.5 1.85e+03    -  4.27e-01 1.09e-01h  1
 307 -1.4038936e-01 2.74e+01 1.30e+03  -7.5 9.69e+02    -  3.17e-01 1.95e-01h  1
 308 -1.4043314e-01 1.94e+01 6.17e+01  -7.5 7.88e+02 -11.2 9.91e-02 3.23e-01h  1
 309 -1.4044615e-01 1.81e+01 1.69e+03  -7.5 2.50e+03 -11.7 4.02e-01 7.95e-02h  1
iter    objective    inf_pr   inf_du lg(mu)  ||d||  lg(rg) alpha_du alpha_pr  ls
 310 -1.4045504e-01 1.81e+01 1.76e+03  -7.5 5.32e+03    -  2.56e-01 4.86e-02h  1
 311 -1.4045630e-01 1.80e+01 1.07e+03  -7.5 1.36e+04    -  6.97e-03 8.25e-03h  1
 312 -1.4049013e-01 3.08e+01 2.45e+03  -7.5 1.52e+03    -  2.15e-01 9.92e-01h  1
 313 -1.4049801e-01 2.61e+01 1.79e+03  -7.5 1.73e+03    -  4.61e-02 2.23e-01h  1
 314 -1.4050211e-01 2.50e+01 1.71e+03  -7.5 2.96e+03    -  1.36e-01 6.41e-02h  1
 315 -1.4052442e-01 3.22e+01 9.48e+02  -7.5 2.89e+03    -  5.77e-02 3.67e-01h  1
 316 -1.4052747e-01 3.07e+01 8.80e+02  -7.5 2.45e+03    -  1.62e-02 5.31e-02h  1
 317 -1.4053531e-01 2.78e+01 6.67e+02  -7.5 2.26e+03    -  2.00e-02 1.62e-01h  1
 318 -1.4055643e-01 5.31e+01 4.60e+02  -7.5 2.93e+03    -  5.51e-03 5.52e-01h  1
 319 -1.4055508e-01 5.24e+01 4.56e+02  -7.5 5.22e+03    -  3.87e-02 1.59e-02h  1
iter    objective    inf_pr   inf_du lg(mu)  ||d||  lg(rg) alpha_du alpha_pr  ls
 320 -1.4055399e-01 4.55e+01 3.97e+02  -7.5 3.85e+02    -  2.24e-02 1.32e-01h  1
 321 -1.4055879e-01 3.71e+00 4.69e+02  -7.5 4.30e+02    -  2.73e-01 1.00e+00h  1
 322 -1.4056470e-01 4.00e+00 4.65e+02  -7.5 3.43e+05 -11.3 8.63e-03 8.23e-04h  1
 323 -1.4056817e-01 2.44e+00 3.74e+02  -7.5 5.75e+02    -  1.55e-02 3.95e-01h  1
 324 -1.4057599e-01 2.91e+00 2.26e+02  -7.5 1.70e+03    -  6.61e-01 2.44e-01h  1
 325 -1.4057995e-01 2.92e+00 1.93e+02  -7.5 1.27e+03    -  1.00e+00 1.58e-01h  1
 326 -1.4058178e-01 4.54e-01 5.25e+00  -7.5 1.61e+02    -  5.01e-02 1.00e+00h  1
 327 -1.4060674e-01 5.62e+01 2.54e+02  -7.5 2.89e+03    -  2.50e-01 6.26e-01h  1
 328 -1.4060628e-01 5.49e+01 2.48e+02  -7.5 1.43e+03    -  6.00e-02 2.42e-02h  1
 329 -1.4060271e-01 5.31e-01 8.16e+02  -7.5 2.22e+02    -  3.98e-02 1.00e+00h  1
iter    objective    inf_pr   inf_du lg(mu)  ||d||  lg(rg) alpha_du alpha_pr  ls
 330 -1.4060398e-01 2.17e-01 1.29e+00  -7.5 1.07e+02    -  2.26e-01 1.00e+00h  1
 331 -1.4061062e-01 4.87e+00 1.97e+01  -7.5 5.10e+02    -  7.53e-01 1.00e+00h  1
 332 -1.4061938e-01 1.13e+01 4.96e+01  -7.5 1.45e+03    -  1.03e-01 4.62e-01h  1
 333 -1.4060916e-01 2.05e+00 7.02e+01  -7.5 8.44e+02    -  1.00e+00 1.00e+00H  1
 334 -1.4061912e-01 1.14e+01 5.96e+01  -7.5 7.74e+02    -  1.00e+00 1.00e+00h  1
 335 -1.4062012e-01 1.14e-01 2.25e+00  -7.5 7.37e+01    -  1.00e+00 1.00e+00h  1
 336 -1.4062002e-01 9.45e-04 1.61e-02  -7.5 6.98e+00    -  1.00e+00 1.00e+00h  1
 337 -1.4062002e-01 2.86e-06 2.02e-05  -7.5 3.78e-01    -  1.00e+00 1.00e+00h  1
 338 -1.4062002e-01 4.38e-10 2.54e-09  -7.5 1.91e-03    -  1.00e+00 1.00e+00h  1
 339 -1.4062328e-01 9.23e-02 2.40e+00  -9.0 2.59e+02    -  2.88e-01 3.04e-01h  1
iter    objective    inf_pr   inf_du lg(mu)  ||d||  lg(rg) alpha_du alpha_pr  ls
 340 -1.4063019e-01 2.10e+01 7.95e+01  -9.0 1.17e+05    -  2.16e-02 8.78e-03h  1
 341 -1.4063790e-01 2.77e+01 1.19e+02  -9.0 3.62e+03    -  1.86e-01 2.32e-01h  1
 342 -1.4064255e-01 2.74e+01 1.26e+02  -9.0 4.34e+03    -  2.91e-01 1.62e-01h  1
 343 -1.4064967e-01 4.42e+01 1.33e+02  -9.0 3.43e+03    -  3.20e-01 3.66e-01h  1
 344 -1.4065356e-01 4.07e+01 2.54e+01  -9.0 1.55e+03    -  1.00e-02 8.19e-01h  1
 345 -1.4065068e-01 1.55e-01 7.70e+00  -9.0 1.02e+02    -  4.01e-02 1.00e+00h  1
 346 -1.4065131e-01 8.47e-02 7.37e-01  -9.0 6.42e+01    -  1.00e+00 1.00e+00h  1
 347 -1.4065130e-01 2.12e-02 8.98e-02  -9.0 3.23e+01    -  1.00e+00 1.00e+00h  1
 348 -1.4065129e-01 6.76e-08 1.75e-05  -9.0 3.78e-02    -  1.00e+00 1.00e+00h  1
 349 -1.4065129e-01 3.05e-10 2.60e-12  -9.0 2.81e-05    -  1.00e+00 1.00e+00h  1

Number of Iterations....: 349

                                   (scaled)                 (unscaled)
Objective...............:  -1.4065129338049071e-01   -1.4065129338049071e-01
Dual infeasibility......:   2.6026361275822366e-12    2.6026361275822366e-12
Constraint violation....:   3.0548386823620044e-10    3.0548386823620044e-10
Complementarity.........:   9.0909098745582506e-10    9.0909098745582506e-10
Overall NLP error.......:   9.0909098745582506e-10    9.0909098745582506e-10


Number of objective function evaluations             = 526
Number of objective gradient evaluations             = 350
Number of equality constraint evaluations            = 526
Number of inequality constraint evaluations          = 527
Number of equality constraint Jacobian evaluations   = 358
Number of inequality constraint Jacobian evaluations = 358
Number of Lagrangian Hessian evaluations             = 349
Total CPU secs in IPOPT (w/o function evaluations)   =    143.435
Total CPU secs in NLP function evaluations           =      6.013

EXIT: Optimal Solution Found.
